decision_x1=[0,4];
decision_x2=[0,4];
decision_x3=[0,4];
decision_x4=[0,4];
decision_x5=[0,4];
decision_x6=[0,4];
decision_x7=[0,4];
decision_x8=[0,4];
decision_x9=[0,4];
decision_x10=[0,4];
decision_x11=[0,4];
decision_x12=[0,4];
decision_x13=[0,4];
decision_x14=[0,4];
random_y1=[0,4];
random_y2=[0,4];
random_y3=[0,4];
random_y4=[0,4];
random_y5=[0,4];
random_y6=[0,4];
random_y7=[0,4];
constraint_x2_x1=[
0,1,2.5|
0,2,5.7|
0,3,6.3|
0,4,6.4|
1,0,1.1|
1,2,4.8|
1,3,9.3|
1,4,5.6|
2,0,8.6|
2,1,0.69|
2,3,1.8|
2,4,2.9|
3,0,3.6|
3,1,2.3|
3,2,2.3|
3,4,4.8|
4,0,7.4|
4,1,4.9|
4,2,4.6|
4,3,7.8|
];
constraint_x3_x2=[
0,1,9.3|
0,2,6.5|
0,3,4.5|
0,4,8.5|
1,0,8|
1,2,8.7|
1,3,9.9|
1,4,3.7|
2,0,2.4|
2,1,1|
2,3,9|
2,4,4.1|
3,0,4.6|
3,1,9.1|
3,2,4.2|
3,4,1.8|
4,0,0.015|
4,1,8.9|
4,2,9.5|
4,3,4.4|
];
constraint_x4_x2=[
0,1,5.3|
0,2,4.3|
0,3,8.6|
0,4,4.3|
1,0,6.3|
1,2,2.4|
1,3,5.6|
1,4,5.3|
2,0,8.4|
2,1,7.7|
2,3,6.4|
2,4,3.7|
3,0,2.4|
3,1,9.6|
3,2,9.3|
3,4,3.3|
4,0,1|
4,1,9.1|
4,2,0.81|
4,3,8.3|
];
constraint_x4_x3=[
0,1,4.9|
0,2,9.4|
0,3,2.6|
0,4,5.5|
1,0,9.8|
1,2,9.5|
1,3,8.8|
1,4,8.5|
2,0,3.6|
2,1,5.7|
2,3,1|
2,4,4.7|
3,0,9.7|
3,1,3.6|
3,2,4.6|
3,4,5.7|
4,0,9.8|
4,1,3.5|
4,2,3.2|
4,3,4|
];
constraint_x5_x1=[
0,1,4.3|
0,2,5.2|
0,3,8.9|
0,4,5.5|
1,0,1.7|
1,2,3.3|
1,3,4.9|
1,4,0.51|
2,0,6.4|
2,1,9.9|
2,3,8.8|
2,4,1.1|
3,0,7.2|
3,1,4.8|
3,2,6.5|
3,4,7.4|
4,0,7.2|
4,1,9.9|
4,2,4.9|
4,3,6.1|
];
constraint_x5_x3=[
0,1,5.3|
0,2,3.3|
0,3,4|
0,4,8.3|
1,0,8.1|
1,2,6.3|
1,3,6.3|
1,4,3.5|
2,0,5|
2,1,7.7|
2,3,1.8|
2,4,4.5|
3,0,9|
3,1,6.8|
3,2,5.4|
3,4,4.5|
4,0,1.7|
4,1,0.79|
4,2,5.7|
4,3,1.7|
];
constraint_x5_x4=[
0,1,4.5|
0,2,2.4|
0,3,9.9|
0,4,5|
1,0,2|
1,2,8.8|
1,3,9.6|
1,4,8.9|
2,0,6|
2,1,3.8|
2,3,4.3|
2,4,9.2|
3,0,8.2|
3,1,0.73|
3,2,7.9|
3,4,4.6|
4,0,6.9|
4,1,6.7|
4,2,8.1|
4,3,0.88|
];
constraint_x6_x2=[
0,1,2.4|
0,2,4.3|
0,3,4|
0,4,3.3|
1,0,5.6|
1,2,5.5|
1,3,2.1|
1,4,5|
2,0,4.3|
2,1,2|
2,3,7.5|
2,4,1.3|
3,0,2.9|
3,1,3.1|
3,2,6.7|
3,4,9.2|
4,0,2.5|
4,1,6.5|
4,2,6.2|
4,3,0.42|
];
constraint_x7_x2=[
0,1,8.7|
0,2,4.1|
0,3,4.6|
0,4,3.8|
1,0,7.7|
1,2,8.5|
1,3,2.4|
1,4,1.8|
2,0,2.8|
2,1,3|
2,3,9.7|
2,4,8|
3,0,3.6|
3,1,6.9|
3,2,9.1|
3,4,3.5|
4,0,1.6|
4,1,2.5|
4,2,7.4|
4,3,6.1|
];
constraint_x7_x3=[
0,1,9.8|
0,2,3.7|
0,3,8.2|
0,4,1.5|
1,0,0.25|
1,2,8|
1,3,8.7|
1,4,3.3|
2,0,8.2|
2,1,8.9|
2,3,5.4|
2,4,1.7|
3,0,5.4|
3,1,9|
3,2,0.25|
3,4,9|
4,0,0.24|
4,1,5|
4,2,5.2|
4,3,9.4|
];
constraint_x7_x6=[
0,1,2.1|
0,2,3.1|
0,3,7.2|
0,4,5.2|
1,0,6.5|
1,2,1|
1,3,0.042|
1,4,4.5|
2,0,8.6|
2,1,0.42|
2,3,3.6|
2,4,9.4|
3,0,2.5|
3,1,4.5|
3,2,4.1|
3,4,8.2|
4,0,8|
4,1,0.11|
4,2,7.8|
4,3,7.1|
];
constraint_x8_x1=[
0,1,4.9|
0,2,0.79|
0,3,1.2|
0,4,7.4|
1,0,0.69|
1,2,7.7|
1,3,2.6|
1,4,7.4|
2,0,2.8|
2,1,8.3|
2,3,3|
2,4,0.39|
3,0,0.5|
3,1,4.8|
3,2,7.8|
3,4,0.99|
4,0,1.7|
4,1,8.2|
4,2,8.4|
4,3,4.3|
];
constraint_x8_x3=[
0,1,1.1|
0,2,4.1|
0,3,8.3|
0,4,2.7|
1,0,2.6|
1,2,6.1|
1,3,8.7|
1,4,9.4|
2,0,4.1|
2,1,2.8|
2,3,4.6|
2,4,7.9|
3,0,8.5|
3,1,4.2|
3,2,8.8|
3,4,2.8|
4,0,7|
4,1,4.6|
4,2,7.9|
4,3,8.2|
];
constraint_x8_x4=[
0,1,0.68|
0,2,0.76|
0,3,1.9|
0,4,0.64|
1,0,8.7|
1,2,2.4|
1,3,0.98|
1,4,8.1|
2,0,2.7|
2,1,9.6|
2,3,6.6|
2,4,5.6|
3,0,9.8|
3,1,0.21|
3,2,0.0068|
3,4,9.5|
4,0,0.55|
4,1,8.7|
4,2,6.6|
4,3,1.1|
];
constraint_x8_x5=[
0,1,4.6|
0,2,9|
0,3,6.6|
0,4,8.5|
1,0,9.1|
1,2,0.84|
1,3,3.3|
1,4,4.3|
2,0,7.7|
2,1,1.4|
2,3,4.1|
2,4,2.7|
3,0,6.1|
3,1,8.2|
3,2,9.8|
3,4,4.8|
4,0,4.3|
4,1,5.3|
4,2,3.4|
4,3,5.6|
];
constraint_x8_x6=[
0,1,7.7|
0,2,4.5|
0,3,4.2|
0,4,0.51|
1,0,2.9|
1,2,1.2|
1,3,3.4|
1,4,3.5|
2,0,5|
2,1,4.4|
2,3,7.7|
2,4,2.2|
3,0,5.9|
3,1,4.5|
3,2,3.1|
3,4,3.3|
4,0,4.8|
4,1,2.5|
4,2,1.2|
4,3,9.7|
];
constraint_x9_x3=[
0,1,1.5|
0,2,9.2|
0,3,9.7|
0,4,3.1|
1,0,5.4|
1,2,1.1|
1,3,1.3|
1,4,2.1|
2,0,0.69|
2,1,5.8|
2,3,4.6|
2,4,5.6|
3,0,7.3|
3,1,6.4|
3,2,0.63|
3,4,3|
4,0,6.2|
4,1,9.3|
4,2,8.8|
4,3,8.7|
];
constraint_x10_x1=[
0,1,7.5|
0,2,8.8|
0,3,0.75|
0,4,1.9|
1,0,4.4|
1,2,7|
1,3,1.9|
1,4,9|
2,0,6.2|
2,1,6|
2,3,2.4|
2,4,7|
3,0,9.7|
3,1,2|
3,2,1.7|
3,4,9.7|
4,0,3.7|
4,1,6.4|
4,2,5.4|
4,3,3.1|
];
constraint_x10_x3=[
0,1,9.7|
0,2,5.9|
0,3,9.8|
0,4,8.1|
1,0,2|
1,2,0.62|
1,3,8.7|
1,4,4.4|
2,0,7.6|
2,1,6.2|
2,3,5.9|
2,4,7.2|
3,0,8.8|
3,1,9.1|
3,2,4|
3,4,5.8|
4,0,3.8|
4,1,4.9|
4,2,1.7|
4,3,2.4|
];
constraint_x10_x5=[
0,1,1.3|
0,2,8.5|
0,3,7.4|
0,4,0.8|
1,0,3.3|
1,2,7.2|
1,3,1.6|
1,4,3.8|
2,0,2.4|
2,1,5.2|
2,3,4.7|
2,4,5.8|
3,0,2|
3,1,6.8|
3,2,2.2|
3,4,2.3|
4,0,0.13|
4,1,4.5|
4,2,8.2|
4,3,5.8|
];
constraint_x10_x8=[
0,1,7.9|
0,2,4.7|
0,3,1.7|
0,4,7.5|
1,0,7.4|
1,2,4.5|
1,3,0.17|
1,4,0.82|
2,0,2.2|
2,1,2|
2,3,0.42|
2,4,2.6|
3,0,3.3|
3,1,1.2|
3,2,7.1|
3,4,5.3|
4,0,1.3|
4,1,2.5|
4,2,3.7|
4,3,4.8|
];
constraint_x11_x1=[
0,1,9.5|
0,2,7.4|
0,3,8|
0,4,3.6|
1,0,0.82|
1,2,0.14|
1,3,5.4|
1,4,1.8|
2,0,6|
2,1,2.9|
2,3,9.5|
2,4,9.1|
3,0,8.1|
3,1,7.9|
3,2,7.7|
3,4,8.4|
4,0,7.7|
4,1,1.2|
4,2,6.2|
4,3,7.3|
];
constraint_x11_x3=[
0,1,9.9|
0,2,6.1|
0,3,1.3|
0,4,4|
1,0,6|
1,2,0.7|
1,3,3.6|
1,4,5.8|
2,0,9.9|
2,1,2.9|
2,3,8.5|
2,4,9.2|
3,0,0.88|
3,1,1.4|
3,2,3.7|
3,4,2.4|
4,0,1.8|
4,1,8|
4,2,8.2|
4,3,2.7|
];
constraint_x11_x4=[
0,1,8.1|
0,2,9.5|
0,3,3.9|
0,4,9.5|
1,0,8.2|
1,2,2.3|
1,3,0.78|
1,4,1.4|
2,0,4.8|
2,1,3.6|
2,3,5.2|
2,4,4.7|
3,0,6|
3,1,7.9|
3,2,8.8|
3,4,1.3|
4,0,4.6|
4,1,3.4|
4,2,8.3|
4,3,2.2|
];
constraint_x11_x5=[
0,1,0.52|
0,2,8.7|
0,3,3|
0,4,4.6|
1,0,0.16|
1,2,7.9|
1,3,6.3|
1,4,9.8|
2,0,3.6|
2,1,9.7|
2,3,7.9|
2,4,0.34|
3,0,2.1|
3,1,7.9|
3,2,2.2|
3,4,0.18|
4,0,2.5|
4,1,1.1|
4,2,8.9|
4,3,9.3|
];
constraint_x11_x6=[
0,1,9.4|
0,2,7.4|
0,3,6.2|
0,4,0.32|
1,0,2.5|
1,2,9.5|
1,3,4.3|
1,4,7.8|
2,0,6|
2,1,2.8|
2,3,9.6|
2,4,0.084|
3,0,0.58|
3,1,0.01|
3,2,4.3|
3,4,6.9|
4,0,7.8|
4,1,5.7|
4,2,2.7|
4,3,8.2|
];
constraint_x11_x8=[
0,1,5.9|
0,2,3.2|
0,3,6.9|
0,4,6|
1,0,4.9|
1,2,5.9|
1,3,9.2|
1,4,0.048|
2,0,5.5|
2,1,0.14|
2,3,5.8|
2,4,1.4|
3,0,9.2|
3,1,0.76|
3,2,8.6|
3,4,6.4|
4,0,3.4|
4,1,1.5|
4,2,1.4|
4,3,2.4|
];
constraint_x11_x9=[
0,1,3.5|
0,2,0.26|
0,3,4.3|
0,4,5|
1,0,4.7|
1,2,9.8|
1,3,2.4|
1,4,0.45|
2,0,1.3|
2,1,9.3|
2,3,5.9|
2,4,7.7|
3,0,3.6|
3,1,1.6|
3,2,9.4|
3,4,4.3|
4,0,6.7|
4,1,9.3|
4,2,4.9|
4,3,6.7|
];
constraint_x12_x1=[
0,1,3.6|
0,2,0.63|
0,3,0.25|
0,4,5|
1,0,3.4|
1,2,0.75|
1,3,3.6|
1,4,7.1|
2,0,4.7|
2,1,7|
2,3,3|
2,4,6.8|
3,0,7.4|
3,1,0.44|
3,2,8.5|
3,4,2.1|
4,0,8.5|
4,1,8.2|
4,2,4.6|
4,3,7.8|
];
constraint_x12_x3=[
0,1,9|
0,2,7.6|
0,3,4.4|
0,4,6.8|
1,0,0.15|
1,2,5|
1,3,9.3|
1,4,2.3|
2,0,5.4|
2,1,4|
2,3,5.5|
2,4,8.7|
3,0,5|
3,1,7.9|
3,2,6.1|
3,4,7.3|
4,0,5.2|
4,1,6.7|
4,2,7.2|
4,3,8.4|
];
constraint_x12_x4=[
0,1,4.8|
0,2,6.9|
0,3,5.9|
0,4,2.5|
1,0,5.3|
1,2,5.8|
1,3,4.2|
1,4,9.2|
2,0,8.9|
2,1,6.5|
2,3,9.1|
2,4,7.9|
3,0,3.7|
3,1,2.9|
3,2,2.4|
3,4,6.9|
4,0,7.3|
4,1,1.9|
4,2,2.2|
4,3,7.8|
];
constraint_x12_x6=[
0,1,6.9|
0,2,8.2|
0,3,2.1|
0,4,7.3|
1,0,9|
1,2,7.6|
1,3,1.1|
1,4,8.7|
2,0,7.2|
2,1,6.6|
2,3,7.7|
2,4,7.2|
3,0,5.1|
3,1,1.7|
3,2,6.1|
3,4,6.7|
4,0,5.6|
4,1,4.6|
4,2,5|
4,3,3.4|
];
constraint_x12_x7=[
0,1,4.6|
0,2,4.7|
0,3,4.3|
0,4,7.7|
1,0,5.4|
1,2,8.3|
1,3,9.2|
1,4,3.6|
2,0,4.2|
2,1,2.5|
2,3,9.3|
2,4,7.1|
3,0,0.7|
3,1,7.2|
3,2,6.1|
3,4,2.2|
4,0,9.4|
4,1,7.1|
4,2,9.5|
4,3,4.2|
];
constraint_x12_x11=[
0,1,1.7|
0,2,1.7|
0,3,8|
0,4,0.64|
1,0,6.5|
1,2,5.6|
1,3,9|
1,4,7.8|
2,0,0.32|
2,1,5.2|
2,3,4.7|
2,4,4.7|
3,0,8.3|
3,1,9.9|
3,2,3.3|
3,4,4.1|
4,0,5.8|
4,1,9.5|
4,2,1.1|
4,3,3.8|
];
constraint_x13_x1=[
0,1,8.4|
0,2,6.4|
0,3,6.8|
0,4,0.05|
1,0,5.2|
1,2,3.5|
1,3,2.6|
1,4,0.32|
2,0,1.8|
2,1,9.1|
2,3,2.8|
2,4,9.5|
3,0,10|
3,1,0.091|
3,2,8.9|
3,4,6.1|
4,0,3|
4,1,7.7|
4,2,8.2|
4,3,7.7|
];
constraint_x13_x2=[
0,1,0.04|
0,2,7.8|
0,3,8.3|
0,4,4.1|
1,0,9.9|
1,2,3.2|
1,3,6.2|
1,4,0.68|
2,0,7.8|
2,1,5.1|
2,3,4.3|
2,4,4.7|
3,0,2.6|
3,1,3.9|
3,2,8|
3,4,8.7|
4,0,3.4|
4,1,0.59|
4,2,4.9|
4,3,5.1|
];
constraint_x13_x4=[
0,1,0.78|
0,2,4.7|
0,3,6|
0,4,7.9|
1,0,4.2|
1,2,7.6|
1,3,0.82|
1,4,3.1|
2,0,9.8|
2,1,8.7|
2,3,2.5|
2,4,7.7|
3,0,0.46|
3,1,3.8|
3,2,4.1|
3,4,4.9|
4,0,9.8|
4,1,9|
4,2,5.1|
4,3,0.077|
];
constraint_x13_x5=[
0,1,7.3|
0,2,7.9|
0,3,3.5|
0,4,3.5|
1,0,5.7|
1,2,2.4|
1,3,9.4|
1,4,4.3|
2,0,1.7|
2,1,0.11|
2,3,9.3|
2,4,6|
3,0,8.4|
3,1,2.8|
3,2,9|
3,4,6.2|
4,0,4.1|
4,1,4|
4,2,8.2|
4,3,6.2|
];
constraint_x13_x6=[
0,1,7|
0,2,9.7|
0,3,9.8|
0,4,4.3|
1,0,9.4|
1,2,7.7|
1,3,3.8|
1,4,8.4|
2,0,2.6|
2,1,1.4|
2,3,9.8|
2,4,1.6|
3,0,9.6|
3,1,9.4|
3,2,4.3|
3,4,8.9|
4,0,1.1|
4,1,7|
4,2,8.7|
4,3,8.1|
];
constraint_x13_x8=[
0,1,6.4|
0,2,8.3|
0,3,4.3|
0,4,0.21|
1,0,6.4|
1,2,8.8|
1,3,6.3|
1,4,2.6|
2,0,8.7|
2,1,8.9|
2,3,2.3|
2,4,3.6|
3,0,6|
3,1,1.4|
3,2,6.3|
3,4,4.9|
4,0,1.8|
4,1,2.4|
4,2,5.9|
4,3,6.3|
];
constraint_x13_x9=[
0,1,0.65|
0,2,9.1|
0,3,0.23|
0,4,3.3|
1,0,4.6|
1,2,0.14|
1,3,4.1|
1,4,1.5|
2,0,6.3|
2,1,7.3|
2,3,9.4|
2,4,3.6|
3,0,2.7|
3,1,2.4|
3,2,6.7|
3,4,3|
4,0,2.2|
4,1,8.8|
4,2,5.1|
4,3,3.9|
];
constraint_x13_x10=[
0,1,9.1|
0,2,6.4|
0,3,7.1|
0,4,7.5|
1,0,7.8|
1,2,8.3|
1,3,4.1|
1,4,1|
2,0,8|
2,1,6|
2,3,9.7|
2,4,8|
3,0,8.5|
3,1,6.1|
3,2,4.3|
3,4,4.4|
4,0,1.7|
4,1,1|
4,2,8.8|
4,3,8.4|
];
constraint_x14_x3=[
0,1,0.82|
0,2,9|
0,3,2.6|
0,4,0.9|
1,0,4.4|
1,2,4.1|
1,3,1|
1,4,9.9|
2,0,3.1|
2,1,4.4|
2,3,1.8|
2,4,9.2|
3,0,8.2|
3,1,0.63|
3,2,6.9|
3,4,5.7|
4,0,8.6|
4,1,0.22|
4,2,7.9|
4,3,9.7|
];
constraint_x14_x6=[
0,1,7.3|
0,2,2.1|
0,3,6.9|
0,4,9.6|
1,0,0.29|
1,2,5.2|
1,3,7.1|
1,4,1.4|
2,0,8.7|
2,1,9.1|
2,3,8.8|
2,4,1.5|
3,0,3.5|
3,1,9|
3,2,4.5|
3,4,9.6|
4,0,8|
4,1,7.5|
4,2,8.3|
4,3,3.3|
];
constraint_x14_x8=[
0,1,0.047|
0,2,6.6|
0,3,9.1|
0,4,1.7|
1,0,4.7|
1,2,4.7|
1,3,2.4|
1,4,8.8|
2,0,6.8|
2,1,6.5|
2,3,7|
2,4,8.3|
3,0,7.3|
3,1,6.8|
3,2,0.9|
3,4,1.4|
4,0,6.3|
4,1,5.5|
4,2,8.4|
4,3,1.3|
];
constraint_x14_x13=[
0,1,1.9|
0,2,7.4|
0,3,3|
0,4,5.1|
1,0,9.5|
1,2,9.7|
1,3,7.1|
1,4,7.3|
2,0,9.6|
2,1,7.7|
2,3,5.3|
2,4,4.7|
3,0,8.9|
3,1,1.3|
3,2,4.6|
3,4,2.9|
4,0,7.2|
4,1,5.1|
4,2,1.2|
4,3,0.21|
];
constraint_x1_y1=[
0,0,8.7|
0,1,3.8|
0,2,6.8|
0,3,8.8|
0,4,7|
1,0,1.4|
1,1,0.066|
1,2,6.9|
1,3,4.9|
1,4,1.4|
2,0,9.2|
2,1,6.4|
2,2,9|
2,3,5.2|
2,4,5.1|
3,0,8.7|
3,1,7.5|
3,2,8.2|
3,3,2.5|
3,4,6|
4,0,9.1|
4,1,4.3|
4,2,8.5|
4,3,5.9|
4,4,9.6|
];
constraint_x2_y2=[
0,0,3.1|
0,1,6.9|
0,2,6|
0,3,9.5|
0,4,2.6|
1,0,6.5|
1,1,3.7|
1,2,9.7|
1,3,4.5|
1,4,6.3|
2,0,4|
2,1,6.4|
2,2,7.2|
2,3,9|
2,4,0.88|
3,0,9.3|
3,1,8.4|
3,2,8.7|
3,3,8.5|
3,4,5.6|
4,0,2.9|
4,1,0.83|
4,2,3.2|
4,3,5.1|
4,4,5.6|
];
constraint_x3_y3=[
0,0,3.2|
0,1,5.6|
0,2,2|
0,3,7.3|
0,4,7.8|
1,0,9.4|
1,1,2.8|
1,2,9.1|
1,3,0.27|
1,4,9.6|
2,0,5.9|
2,1,0.52|
2,2,9.2|
2,3,1.4|
2,4,3.2|
3,0,9|
3,1,8.3|
3,2,9.7|
3,3,6.7|
3,4,5.8|
4,0,7.9|
4,1,8.8|
4,2,8.3|
4,3,1.1|
4,4,0.73|
];
constraint_x4_y4=[
0,0,2.6|
0,1,5.6|
0,2,3.2|
0,3,2.2|
0,4,3.9|
1,0,7.4|
1,1,5.6|
1,2,3.1|
1,3,6.5|
1,4,9.3|
2,0,5.8|
2,1,4.4|
2,2,2.8|
2,3,4.8|
2,4,7.3|
3,0,4.9|
3,1,2.7|
3,2,7|
3,3,3.2|
3,4,5.3|
4,0,5|
4,1,2|
4,2,3.6|
4,3,2.1|
4,4,7.5|
];
constraint_x5_y5=[
0,0,7.9|
0,1,0.59|
0,2,6.5|
0,3,4.1|
0,4,8.1|
1,0,1.3|
1,1,9.5|
1,2,5.3|
1,3,2.1|
1,4,5.7|
2,0,6.5|
2,1,3.1|
2,2,2.8|
2,3,0.72|
2,4,9.1|
3,0,8.3|
3,1,1.3|
3,2,2.7|
3,3,1.1|
3,4,1.6|
4,0,7.1|
4,1,7.6|
4,2,9.1|
4,3,9.9|
4,4,9.4|
];
constraint_x6_y6=[
0,0,9.6|
0,1,6.8|
0,2,3.9|
0,3,8.3|
0,4,8.1|
1,0,2.7|
1,1,0.19|
1,2,7.3|
1,3,7.9|
1,4,7.1|
2,0,8.5|
2,1,8.7|
2,2,5.3|
2,3,1.4|
2,4,3.6|
3,0,1.4|
3,1,4.4|
3,2,4.4|
3,3,9.5|
3,4,0.43|
4,0,0.34|
4,1,0.41|
4,2,9.4|
4,3,6.5|
4,4,0.83|
];
constraint_x7_y7=[
0,0,5|
0,1,9.3|
0,2,5.3|
0,3,2.1|
0,4,4.6|
1,0,8.7|
1,1,7.3|
1,2,9.9|
1,3,2.4|
1,4,9.7|
2,0,2.5|
2,1,5.1|
2,2,6.3|
2,3,5.1|
2,4,2.6|
3,0,2.2|
3,1,1.9|
3,2,5.1|
3,3,4.1|
3,4,4.2|
4,0,9.6|
4,1,1.7|
4,2,9.1|
4,3,5.2|
4,4,7.6|
];
initial_distribution_y1=[0.039,0.26,0.2,0.41,0.092];
initial_distribution_y2=[0.24,0.14,0.21,0.22,0.19];
initial_distribution_y3=[0.18,0.29,0.036,0.13,0.36];
initial_distribution_y4=[0.3,0.023,0.062,0.3,0.32];
initial_distribution_y5=[0.027,0.33,0.44,0.14,0.062];
initial_distribution_y6=[0.27,0.085,0.17,0.35,0.12];
initial_distribution_y7=[0.1,0.13,0.071,0.38,0.32];
transition_y1=[
0.11,0.2,0.17,0.27,0.24|
0.037,0.29,0.13,0.51,0.034|
0.19,0.058,0.29,0.15,0.31|
0.25,0.067,0.13,0.046,0.51|
0.35,0.22,0.063,0.14,0.23|
];
transition_y2=[
0.14,0.21,0.25,0.16,0.24|
0.18,0.25,0.13,0.13,0.32|
0.12,0.35,0.1,0.015,0.41|
0.26,0.62,0.022,0.014,0.088|
0.0056,0.39,0.024,0.18,0.39|
];
transition_y3=[
0.14,0.15,0.24,0.25,0.22|
0.17,0.21,0.13,0.24,0.24|
0.017,0.37,0.21,0.18,0.22|
0.013,0.13,0.21,0.27,0.38|
0.18,0.19,0.35,0.011,0.27|
];
transition_y4=[
0.2,0.33,0.043,0.024,0.41|
0.18,0.23,0.26,0.068,0.26|
0.35,0.2,0.02,0.13,0.3|
0.044,0.1,0.46,0.1,0.29|
0.14,0.14,0.05,0.34,0.32|
];
transition_y5=[
0.14,0.2,0.21,0.18,0.27|
0.36,0.038,0.093,0.44,0.071|
0.15,0.19,0.17,0.46,0.021|
0.32,0.36,0.11,0.1,0.11|
0.061,0.38,0.11,0.35,0.096|
];
transition_y6=[
0.047,0.3,0.3,0.0042,0.35|
0.24,0.017,0.14,0.19,0.42|
0.22,0.15,0.3,0.2,0.15|
0.27,0.24,0.098,0.17,0.23|
0.27,0.17,0.14,0.15,0.27|
];
transition_y7=[
0.23,0.18,0.054,0.23,0.31|
0.21,0.29,0.35,0.052,0.11|
0.35,0.27,0.012,0.32,0.046|
0.28,0.022,0.11,0.39,0.2|
0.2,0.22,0.053,0.33,0.19|
];
